language Essence 1.3

letting blksize_delta be
        function(1 --> 1, 2 --> 1, 3 --> 1, 4 --> 1, 5 --> 1, 6 --> 1, 7 --> 1, 8 --> 1, 9 --> 1, 10 --> 1, 11 --> 1,
                 12 --> 1, 13 --> 1, 14 --> 1, 15 --> 1, 16 --> 1, 17 --> 1, 18 --> 1, 19 --> 1, 20 --> 1, 21 --> 1,
                 22 --> 1, 23 --> 1)
letting maxcars be
        function(1 --> 10, 2 --> 10, 3 --> 10, 4 --> 10, 5 --> 10, 6 --> 10, 7 --> 4, 8 --> 10, 9 --> 10, 10 --> 4,
                 11 --> 10, 12 --> 10, 13 --> 10, 14 --> 10, 15 --> 10, 16 --> 10, 17 --> 10, 18 --> 10, 19 --> 10,
                 20 --> 10, 21 --> 8, 22 --> 10, 23 --> 10)
letting n_cars be 163
letting n_classes be 2
letting n_options be 23
letting quantity be function(1 --> 81, 2 --> 82)
letting usage be
        relation((1, 1), (1, 2), (1, 3), (1, 5), (1, 6), (1, 7), (1, 8), (1, 9), (1, 10), (1, 11), (1, 12), (1, 13),
                 (1, 14), (1, 15), (1, 16), (1, 17), (1, 18), (1, 21), (1, 22), (1, 23), (2, 4), (2, 19), (2, 20))
$ Visualisation for usage
$  1  1
$  1  2
$  1  3
$  1  5
$  1  6
$  1  7
$  1  8
$  1  9
$  1 10
$  1 11
$  1 12
$  1 13
$  1 14
$  1 15
$  1 16
$  1 17
$  1 18
$  1 21
$  1 22
$  1 23
$  2  4
$  2 19
$  2 20

